sifdecoder -A pc64.lnx.gfo -st   LOTSCHD

 Problem name: LOTSCHD

 Double precision version will be formed

 The objective function uses 6 nonlinear groups
 
 There are 7 linear equality constraints
 
 There are 12 variables bounded only from below 
 
 
 File successfully decoded
 CUTEST: tools (double precision version) compiled successfully
 CUTEst: ipopt (double precision version) compiled successfully

******************************************************************************
This program contains Ipopt, a library for large-scale nonlinear optimization.
 Ipopt is released as open source code under the Eclipse Public License (EPL).
         For more information visit http://projects.coin-or.org/Ipopt
******************************************************************************

This is Ipopt version trunk, running with linear solver ma57.

Number of nonzeros in equality constraint Jacobian...:       54
Number of nonzeros in inequality constraint Jacobian.:        0
Number of nonzeros in Lagrangian Hessian.............:        6

Total number of variables............................:       12
                     variables with only lower bounds:       12
                variables with lower and upper bounds:        0
                     variables with only upper bounds:        0
Total number of equality constraints.................:        7
Total number of inequality constraints...............:        0
        inequality constraints with only lower bounds:        0
   inequality constraints with lower and upper bounds:        0
        inequality constraints with only upper bounds:        0

iter    objective    inf_pr   inf_du lg(mu)  ||d||  lg(rg) alpha_du alpha_pr  ls
   0  8.5995158e-04 1.26e+02 1.68e-02  -1.0 0.00e+00    -  0.00e+00 0.00e+00   0
   1  2.6752599e-01 1.25e+02 2.47e+01  -1.0 2.67e+01    -  3.72e-04 9.64e-03f  1
   2  2.5824783e+03 3.20e-14 7.36e+01  -1.0 2.65e+01    -  1.01e-02 1.00e+00h  1
   3  2.5412028e+03 3.73e-14 7.13e+01  -1.0 7.87e+01    -  8.35e-02 3.07e-02f  1
   4  2.4632426e+03 3.29e-14 6.60e+01  -1.0 7.02e+01    -  8.06e-01 7.43e-02f  1
   5  2.4264168e+03 5.60e-14 5.87e+01  -1.0 7.03e+00    -  1.00e+00 1.81e-01f  1
   6  2.3994560e+03 1.78e-14 1.01e+01  -1.0 6.42e+00    -  1.00e+00 8.29e-01f  1
   7  2.3988048e+03 2.28e-14 1.91e+00  -1.0 1.02e+00    -  1.00e+00 8.15e-01f  1
   8  2.3992219e+03 1.78e-14 1.00e-06  -1.0 5.69e-01    -  1.00e+00 1.00e+00f  1
   9  2.3986241e+03 1.78e-14 2.00e-07  -1.7 3.33e-01    -  1.00e+00 1.00e+00f  1
iter    objective    inf_pr   inf_du lg(mu)  ||d||  lg(rg) alpha_du alpha_pr  ls
  10  2.3984602e+03 2.60e-14 2.83e-08  -2.5 1.64e-01    -  1.00e+00 1.00e+00f  1
  11  2.3984343e+03 1.78e-14 2.83e-08  -2.5 6.10e-02    -  1.00e+00 1.00e+00f  1
  12  2.3984170e+03 1.58e-14 1.50e-09  -3.8 1.79e-02    -  1.00e+00 1.00e+00f  1
  13  2.3984158e+03 2.82e-14 1.85e-11  -5.7 1.54e-03    -  1.00e+00 1.00e+00f  1
  14  2.3984158e+03 2.66e-14 3.12e-14  -8.6 1.35e-05    -  1.00e+00 1.00e+00f  1

Number of Iterations....: 14

                                   (scaled)                 (unscaled)
Objective...............:   2.3984158374896178e+03    2.3984158374896178e+03
Dual infeasibility......:   3.1225831947268299e-14    3.1225831947268299e-14
Constraint violation....:   2.6613165339008094e-14    2.6613165339008094e-14
Complementarity.........:   2.7347645882569337e-09    2.7347645882569337e-09
Overall NLP error.......:   2.7347645882569337e-09    2.7347645882569337e-09


Number of objective function evaluations             = 15
Number of objective gradient evaluations             = 15
Number of equality constraint evaluations            = 15
Number of inequality constraint evaluations          = 0
Number of equality constraint Jacobian evaluations   = 15
Number of inequality constraint Jacobian evaluations = 0
Number of Lagrangian Hessian evaluations             = 14
Total CPU secs in IPOPT (w/o function evaluations)   =      0.024
Total CPU secs in NLP function evaluations           =      0.002

EXIT: Optimal Solution Found.

************************ CUTEst statistics ************************


 Package used            :  IPOPT
 Problem                 :  LOTSCHD   
 # variables             =              12
 # constraints           =               7
 # objective functions   =        0.3100000E+02
 # objective gradients   =        0.1600000E+02
 # objective Hessians    =        0.1500000E+02
 # Hessian-vector prdct  =        0.0000000E+00
 # constraints functions =        0.3200000E+02
 # constraints gradients =        0.1700000E+02
 # constraints Hessians  =        0.1500000E+02
 Exit code               =               0
 Final f                 =        2.3984158374896178D+03
 Bounds feasibility      =        9.9487316417851336D-09
 Set up time             =            0.00 seconds
 Solve time              =            0.08 seconds


******************************************************************

